
Minimize
 obj: x__E_10_
Subject To
1 x__0_0_ + 1 x__0_1_ + 1 x__0_2_ + 1 x__0_3_ + 1 x__0_4_ + 1 x__0_5_ = 1
1 x__0_1_ + 2 x__0_2_ + 3 x__0_3_ + 4 x__0_4_ + 5 x__0_5_ + -1 x__E_0_ = 0
1 x__1_0_ + 1 x__1_1_ + 1 x__1_2_ + 1 x__1_3_ + 1 x__1_4_ + 1 x__1_5_ = 20
1 x__1_1_ + 2 x__1_2_ + 3 x__1_3_ + 4 x__1_4_ + 5 x__1_5_ + -20 x__E_1_ = 0
1 x__2_0_ + 1 x__2_1_ + 1 x__2_2_ + 1 x__2_3_ + 1 x__2_4_ + 1 x__2_5_ = 190
1 x__2_1_ + 2 x__2_2_ + 3 x__2_3_ + 4 x__2_4_ + 5 x__2_5_ + -190 x__E_2_ = 0
1 x__3_0_ + 1 x__3_1_ + 1 x__3_2_ + 1 x__3_3_ + 1 x__3_4_ + 1 x__3_5_ = 1140
1 x__3_1_ + 2 x__3_2_ + 3 x__3_3_ + 4 x__3_4_ + 5 x__3_5_ + -1140 x__E_3_ = 0
1 x__4_0_ + 1 x__4_1_ + 1 x__4_2_ + 1 x__4_3_ + 1 x__4_4_ + 1 x__4_5_ = 4845
1 x__4_1_ + 2 x__4_2_ + 3 x__4_3_ + 4 x__4_4_ + 5 x__4_5_ + -4845 x__E_4_ = 0
1 x__5_0_ + 1 x__5_1_ + 1 x__5_2_ + 1 x__5_3_ + 1 x__5_4_ + 1 x__5_5_ = 15504
1 x__5_1_ + 2 x__5_2_ + 3 x__5_3_ + 4 x__5_4_ + 5 x__5_5_ + -15504 x__E_5_ = 0
1 x__6_0_ + 1 x__6_1_ + 1 x__6_2_ + 1 x__6_3_ + 1 x__6_4_ + 1 x__6_5_ = 38760
1 x__6_1_ + 2 x__6_2_ + 3 x__6_3_ + 4 x__6_4_ + 5 x__6_5_ + -38760 x__E_6_ = 0
1 x__7_0_ + 1 x__7_1_ + 1 x__7_2_ + 1 x__7_3_ + 1 x__7_4_ + 1 x__7_5_ = 77520
1 x__7_1_ + 2 x__7_2_ + 3 x__7_3_ + 4 x__7_4_ + 5 x__7_5_ + -77520 x__E_7_ = 0
1 x__8_0_ + 1 x__8_1_ + 1 x__8_2_ + 1 x__8_3_ + 1 x__8_4_ + 1 x__8_5_ = 125970
1 x__8_1_ + 2 x__8_2_ + 3 x__8_3_ + 4 x__8_4_ + 5 x__8_5_ + -125970 x__E_8_ = 0
1 x__9_0_ + 1 x__9_1_ + 1 x__9_2_ + 1 x__9_3_ + 1 x__9_4_ + 1 x__9_5_ = 167960
1 x__9_1_ + 2 x__9_2_ + 3 x__9_3_ + 4 x__9_4_ + 5 x__9_5_ + -167960 x__E_9_ = 0
1 x__10_0_ + 1 x__10_1_ + 1 x__10_2_ + 1 x__10_3_ + 1 x__10_4_ + 1 x__10_5_ = 184756
1 x__10_1_ + 2 x__10_2_ + 3 x__10_3_ + 4 x__10_4_ + 5 x__10_5_ + -184756 x__E_10_ = 0
1 x__11_0_ + 1 x__11_1_ + 1 x__11_2_ + 1 x__11_3_ + 1 x__11_4_ + 1 x__11_5_ = 167960
1 x__11_1_ + 2 x__11_2_ + 3 x__11_3_ + 4 x__11_4_ + 5 x__11_5_ + -167960 x__E_11_ = 0
1 x__12_0_ + 1 x__12_1_ + 1 x__12_2_ + 1 x__12_3_ + 1 x__12_4_ + 1 x__12_5_ = 125970
1 x__12_1_ + 2 x__12_2_ + 3 x__12_3_ + 4 x__12_4_ + 5 x__12_5_ + -125970 x__E_12_ = 0
1 x__13_0_ + 1 x__13_1_ + 1 x__13_2_ + 1 x__13_3_ + 1 x__13_4_ + 1 x__13_5_ = 77520
1 x__13_1_ + 2 x__13_2_ + 3 x__13_3_ + 4 x__13_4_ + 5 x__13_5_ + -77520 x__E_13_ = 0
1 x__14_0_ + 1 x__14_1_ + 1 x__14_2_ + 1 x__14_3_ + 1 x__14_4_ + 1 x__14_5_ = 38760
1 x__14_1_ + 2 x__14_2_ + 3 x__14_3_ + 4 x__14_4_ + 5 x__14_5_ + -38760 x__E_14_ = 0
1 x__15_0_ + 1 x__15_1_ + 1 x__15_2_ + 1 x__15_3_ + 1 x__15_4_ + 1 x__15_5_ = 15504
1 x__15_1_ + 2 x__15_2_ + 3 x__15_3_ + 4 x__15_4_ + 5 x__15_5_ + -15504 x__E_15_ = 0
1 x__16_0_ + 1 x__16_1_ + 1 x__16_2_ + 1 x__16_3_ + 1 x__16_4_ + 1 x__16_5_ = 4845
1 x__16_1_ + 2 x__16_2_ + 3 x__16_3_ + 4 x__16_4_ + 5 x__16_5_ + -4845 x__E_16_ = 0
1 x__17_0_ + 1 x__17_1_ + 1 x__17_2_ + 1 x__17_3_ + 1 x__17_4_ + 1 x__17_5_ = 1140
1 x__17_1_ + 2 x__17_2_ + 3 x__17_3_ + 4 x__17_4_ + 5 x__17_5_ + -1140 x__E_17_ = 0
1 x__18_0_ + 1 x__18_1_ + 1 x__18_2_ + 1 x__18_3_ + 1 x__18_4_ + 1 x__18_5_ = 190
1 x__18_1_ + 2 x__18_2_ + 3 x__18_3_ + 4 x__18_4_ + 5 x__18_5_ + -190 x__E_18_ = 0
1 x__19_0_ + 1 x__19_1_ + 1 x__19_2_ + 1 x__19_3_ + 1 x__19_4_ + 1 x__19_5_ = 20
1 x__19_1_ + 2 x__19_2_ + 3 x__19_3_ + 4 x__19_4_ + 5 x__19_5_ + -20 x__E_19_ = 0
1 x__20_0_ + 1 x__20_1_ + 1 x__20_2_ + 1 x__20_3_ + 1 x__20_4_ + 1 x__20_5_ = 1
1 x__20_1_ + 2 x__20_2_ + 3 x__20_3_ + 4 x__20_4_ + 5 x__20_5_ + -1 x__E_20_ = 0
1 x__0_0_ + 1 x__1_0_ + 1 x__2_0_ + 1 x__3_0_ + 1 x__4_0_ + 1 x__5_0_ + 1 x__6_0_ + 1 x__7_0_ + 1 x__8_0_ + 1 x__9_0_ + 1 x__10_0_ + 1 x__11_0_ + 1 x__12_0_ + 1 x__13_0_ + 1 x__14_0_ + 1 x__15_0_ + 1 x__16_0_ + 1 x__17_0_ + 1 x__18_0_ + 1 x__19_0_ + 1 x__20_0_ <= 1
1 x__0_1_ + 1 x__1_1_ + 1 x__2_1_ + 1 x__3_1_ + 1 x__4_1_ + 1 x__5_1_ + 1 x__6_1_ + 1 x__7_1_ + 1 x__8_1_ + 1 x__9_1_ + 1 x__10_1_ + 1 x__11_1_ + 1 x__12_1_ + 1 x__13_1_ + 1 x__14_1_ + 1 x__15_1_ + 1 x__16_1_ + 1 x__17_1_ + 1 x__18_1_ + 1 x__19_1_ + 1 x__20_1_ <= 32768
1 x__0_2_ + 1 x__1_2_ + 1 x__2_2_ + 1 x__3_2_ + 1 x__4_2_ + 1 x__5_2_ + 1 x__6_2_ + 1 x__7_2_ + 1 x__8_2_ + 1 x__9_2_ + 1 x__10_2_ + 1 x__11_2_ + 1 x__12_2_ + 1 x__13_2_ + 1 x__14_2_ + 1 x__15_2_ + 1 x__16_2_ + 1 x__17_2_ + 1 x__18_2_ + 1 x__19_2_ + 1 x__20_2_ <= 2147483648
1 x__0_3_ + 1 x__1_3_ + 1 x__2_3_ + 1 x__3_3_ + 1 x__4_3_ + 1 x__5_3_ + 1 x__6_3_ + 1 x__7_3_ + 1 x__8_3_ + 1 x__9_3_ + 1 x__10_3_ + 1 x__11_3_ + 1 x__12_3_ + 1 x__13_3_ + 1 x__14_3_ + 1 x__15_3_ + 1 x__16_3_ + 1 x__17_3_ + 1 x__18_3_ + 1 x__19_3_ + 1 x__20_3_ <= 281474976710656
1 x__0_4_ + 1 x__1_4_ + 1 x__2_4_ + 1 x__3_4_ + 1 x__4_4_ + 1 x__5_4_ + 1 x__6_4_ + 1 x__7_4_ + 1 x__8_4_ + 1 x__9_4_ + 1 x__10_4_ + 1 x__11_4_ + 1 x__12_4_ + 1 x__13_4_ + 1 x__14_4_ + 1 x__15_4_ + 1 x__16_4_ + 1 x__17_4_ + 1 x__18_4_ + 1 x__19_4_ + 1 x__20_4_ <= 73786976294838206464
1 x__0_5_ + 1 x__1_5_ + 1 x__2_5_ + 1 x__3_5_ + 1 x__4_5_ + 1 x__5_5_ + 1 x__6_5_ + 1 x__7_5_ + 1 x__8_5_ + 1 x__9_5_ + 1 x__10_5_ + 1 x__11_5_ + 1 x__12_5_ + 1 x__13_5_ + 1 x__14_5_ + 1 x__15_5_ + 1 x__16_5_ + 1 x__17_5_ + 1 x__18_5_ + 1 x__19_5_ + 1 x__20_5_ <= 38685626227668133590597632
Bounds
0 <= x__E_0_
0 <= x__E_1_
0 <= x__E_2_
0 <= x__E_3_
0 <= x__E_4_
0 <= x__E_5_
0 <= x__E_6_
0 <= x__E_7_
0 <= x__E_8_
0 <= x__E_9_
0 <= x__E_10_
0 <= x__E_11_
0 <= x__E_12_
0 <= x__E_13_
0 <= x__E_14_
0 <= x__E_15_
0 <= x__E_16_
0 <= x__E_17_
0 <= x__E_18_
0 <= x__E_19_
0 <= x__E_20_
0 <= x__0_0_
0 <= x__0_1_
0 <= x__0_2_
0 <= x__0_3_
0 <= x__0_4_
0 <= x__0_5_
0 <= x__1_0_
0 <= x__1_1_
0 <= x__1_2_
0 <= x__1_3_
0 <= x__1_4_
0 <= x__1_5_
0 <= x__2_0_
0 <= x__2_1_
0 <= x__2_2_
0 <= x__2_3_
0 <= x__2_4_
0 <= x__2_5_
0 <= x__3_0_
0 <= x__3_1_
0 <= x__3_2_
0 <= x__3_3_
0 <= x__3_4_
0 <= x__3_5_
0 <= x__4_0_
0 <= x__4_1_
0 <= x__4_2_
0 <= x__4_3_
0 <= x__4_4_
0 <= x__4_5_
0 <= x__5_0_
0 <= x__5_1_
0 <= x__5_2_
0 <= x__5_3_
0 <= x__5_4_
0 <= x__5_5_
0 <= x__6_0_
0 <= x__6_1_
0 <= x__6_2_
0 <= x__6_3_
0 <= x__6_4_
0 <= x__6_5_
0 <= x__7_0_
0 <= x__7_1_
0 <= x__7_2_
0 <= x__7_3_
0 <= x__7_4_
0 <= x__7_5_
0 <= x__8_0_
0 <= x__8_1_
0 <= x__8_2_
0 <= x__8_3_
0 <= x__8_4_
0 <= x__8_5_
0 <= x__9_0_
0 <= x__9_1_
0 <= x__9_2_
0 <= x__9_3_
0 <= x__9_4_
0 <= x__9_5_
0 <= x__10_0_
0 <= x__10_1_
0 <= x__10_2_
0 <= x__10_3_
0 <= x__10_4_
0 <= x__10_5_
0 <= x__11_0_
0 <= x__11_1_
0 <= x__11_2_
0 <= x__11_3_
0 <= x__11_4_
0 <= x__11_5_
0 <= x__12_0_
0 <= x__12_1_
0 <= x__12_2_
0 <= x__12_3_
0 <= x__12_4_
0 <= x__12_5_
0 <= x__13_0_
0 <= x__13_1_
0 <= x__13_2_
0 <= x__13_3_
0 <= x__13_4_
0 <= x__13_5_
0 <= x__14_0_
0 <= x__14_1_
0 <= x__14_2_
0 <= x__14_3_
0 <= x__14_4_
0 <= x__14_5_
0 <= x__15_0_
0 <= x__15_1_
0 <= x__15_2_
0 <= x__15_3_
0 <= x__15_4_
0 <= x__15_5_
0 <= x__16_0_
0 <= x__16_1_
0 <= x__16_2_
0 <= x__16_3_
0 <= x__16_4_
0 <= x__16_5_
0 <= x__17_0_
0 <= x__17_1_
0 <= x__17_2_
0 <= x__17_3_
0 <= x__17_4_
0 <= x__17_5_
0 <= x__18_0_
0 <= x__18_1_
0 <= x__18_2_
0 <= x__18_3_
0 <= x__18_4_
0 <= x__18_5_
0 <= x__19_0_
0 <= x__19_1_
0 <= x__19_2_
0 <= x__19_3_
0 <= x__19_4_
0 <= x__19_5_
0 <= x__20_0_
0 <= x__20_1_
0 <= x__20_2_
0 <= x__20_3_
0 <= x__20_4_
0 <= x__20_5_
End
